/* Objective function */
max: +t;

/* Constraints */
+3.67277597224e-010 pi3 +4.94167196053e-009 pi4 +2.41921043198e-006 pi5 -t >= 0;
+5.00405489615e-012 pi1 +3.18555848367e-010 pi5 -t >= 0;
+5.96862316515e-012 pi3 +4.34959135376e-009 pi4 +3.48586298715e-010 pi5 -t >= 0;
R4: -t >= 0;
+2.43831905777e-008 pi1 +3.45458488205e-011 pi5 -t >= 0;
+pi1 +pi2 +pi3 +pi4 +pi5 = 1;
